# TiAl test - just PACE, no table
units           metal
atom_style      atomic
boundary        p p p

lattice         bcc 3.19
region          box block 0 2 0 2 0 2
create_box      2 box
create_atoms    1 box basis 1 1 basis 2 2

mass            1 47.867   # Ti
mass            2 26.982   # Al

# Just PACE, no hybrid/overlay
pair_style      pace
pair_coeff      * * /home/eng/essswb/ace-potentials-julia-1.2/ACEpotentials.jl/benchmark/lammps/tial_model.yace Ti Al

run 0
